min: c;

c = 3.01334083524423 * u1_t7_h4 + 3.84325149399339 * u1_t7_h5 + 4.09028898550256 * u1_t5_h6 + 4.09028898550256 * u1_t7_h6 + 4.57705706754142 * u1_t5_h7 + 4.57705706754142 * u1_t7_h7 + 4.57705706754142 * u1_t9_h7 + 5.05826384220985 * u1_t5_h8 + 5.05826384220985 * u1_t7_h8 + 5.05826384220985 * u1_t9_h8 + 5.05826384220985 * u1_t10_h8 + 5.21863769073631 * u1_t5_h9 + 5.21863769073631 * u1_t7_h9 + 5.21863769073631 * u1_t9_h9 + 5.21863769073631 * u1_t10_h9 + 5.58366580571975 * u1_t5_h10 + 5.58366580571975 * u1_t7_h10 + 5.58366580571975 * u1_t9_h10 + 5.58366580571975 * u1_t10_h10 + 3.62820436404394 * u1_t5_h11 + 3.62820436404394 * u1_t9_h11 + 3.62820436404394 * u1_t10_h11 + 5.862280133962 * u1_t4_h12 + 5.862280133962 * u1_t5_h12 + 5.862280133962 * u1_t8_h12 + 5.862280133962 * u1_t9_h12 + 5.862280133962 * u1_t10_h12 + 4.17694879903379 * u1_t4_h13 + 4.17694879903379 * u1_t8_h13 + 4.17694879903379 * u1_t9_h13 + 4.17694879903379 * u1_t10_h13 + 5.23086789175333 * u1_t4_h14 + 5.23086789175333 * u1_t8_h14 + 5.23086789175333 * u1_t9_h14 + 5.23086789175333 * u1_t10_h14 + 6.33690924030496 * u1_t4_h15 + 6.33690924030496 * u1_t8_h15 + 5.46234771391532 * u1_t4_h16 + 5.46234771391532 * u1_t8_h16 + 6.75264610786601 * u1_t4_h17 + 6.75264610786601 * u1_t8_h17 + 6.27548944937475 * u1_t2_h18 + 6.27548944937475 * u1_t4_h18 + 6.27548944937475 * u1_t6_h18 + 6.27548944937475 * u1_t8_h18 + 5.93533432707165 * u1_t2_h19 + 5.93533432707165 * u1_t3_h19 + 5.93533432707165 * u1_t4_h19 + 5.93533432707165 * u1_t6_h19 + 6.0044169087517 * u1_t1_h20 + 6.0044169087517 * u1_t2_h20 + 6.0044169087517 * u1_t3_h20 + 6.0044169087517 * u1_t4_h20 + 6.0044169087517 * u1_t6_h20 + 5.75106209641017 * u1_t1_h21 + 5.75106209641017 * u1_t2_h21 + 5.75106209641017 * u1_t3_h21 + 5.17056017734889 * u1_t1_h22 + 5.17056017734889 * u1_t2_h22 + 5.44473336209933 * u1_t1_h23 + 5.44473336209933 * u1_t2_h23;
0 <= u1_t1_h20 <= 1;
0 <= u1_t1_h21 <= 1;
0 <= u1_t1_h22 <= 1;
0 <= u1_t1_h23 <= 1;
u1_t1_h20 + u1_t1_h21 + u1_t1_h22 + u1_t1_h23 = 1;
0 <= u1_t2_h18 <= 1;
0 <= u1_t2_h19 <= 1;
0 <= u1_t2_h20 <= 1;
0 <= u1_t2_h21 <= 1;
0 <= u1_t2_h22 <= 1;
0 <= u1_t2_h23 <= 1;
u1_t2_h18 + u1_t2_h19 + u1_t2_h20 + u1_t2_h21 + u1_t2_h22 + u1_t2_h23 = 2;
0 <= u1_t3_h19 <= 1;
0 <= u1_t3_h20 <= 1;
0 <= u1_t3_h21 <= 1;
u1_t3_h19 + u1_t3_h20 + u1_t3_h21 = 1;
0 <= u1_t4_h12 <= 1;
0 <= u1_t4_h13 <= 1;
0 <= u1_t4_h14 <= 1;
0 <= u1_t4_h15 <= 1;
0 <= u1_t4_h16 <= 1;
0 <= u1_t4_h17 <= 1;
0 <= u1_t4_h18 <= 1;
0 <= u1_t4_h19 <= 1;
0 <= u1_t4_h20 <= 1;
u1_t4_h12 + u1_t4_h13 + u1_t4_h14 + u1_t4_h15 + u1_t4_h16 + u1_t4_h17 + u1_t4_h18 + u1_t4_h19 + u1_t4_h20 = 3;
0 <= u1_t5_h6 <= 1;
0 <= u1_t5_h7 <= 1;
0 <= u1_t5_h8 <= 1;
0 <= u1_t5_h9 <= 1;
0 <= u1_t5_h10 <= 1;
0 <= u1_t5_h11 <= 1;
0 <= u1_t5_h12 <= 1;
u1_t5_h6 + u1_t5_h7 + u1_t5_h8 + u1_t5_h9 + u1_t5_h10 + u1_t5_h11 + u1_t5_h12 = 3;
0 <= u1_t6_h18 <= 1;
0 <= u1_t6_h19 <= 1;
0 <= u1_t6_h20 <= 1;
u1_t6_h18 + u1_t6_h19 + u1_t6_h20 = 2;
0 <= u1_t7_h4 <= 1;
0 <= u1_t7_h5 <= 1;
0 <= u1_t7_h6 <= 1;
0 <= u1_t7_h7 <= 1;
0 <= u1_t7_h8 <= 1;
0 <= u1_t7_h9 <= 1;
0 <= u1_t7_h10 <= 1;
u1_t7_h4 + u1_t7_h5 + u1_t7_h6 + u1_t7_h7 + u1_t7_h8 + u1_t7_h9 + u1_t7_h10 = 2;
0 <= u1_t8_h12 <= 1;
0 <= u1_t8_h13 <= 1;
0 <= u1_t8_h14 <= 1;
0 <= u1_t8_h15 <= 1;
0 <= u1_t8_h16 <= 1;
0 <= u1_t8_h17 <= 1;
0 <= u1_t8_h18 <= 1;
u1_t8_h12 + u1_t8_h13 + u1_t8_h14 + u1_t8_h15 + u1_t8_h16 + u1_t8_h17 + u1_t8_h18 = 2;
0 <= u1_t9_h7 <= 1;
0 <= u1_t9_h8 <= 1;
0 <= u1_t9_h9 <= 1;
0 <= u1_t9_h10 <= 1;
0 <= u1_t9_h11 <= 1;
0 <= u1_t9_h12 <= 1;
0 <= u1_t9_h13 <= 1;
0 <= u1_t9_h14 <= 1;
u1_t9_h7 + u1_t9_h8 + u1_t9_h9 + u1_t9_h10 + u1_t9_h11 + u1_t9_h12 + u1_t9_h13 + u1_t9_h14 = 3;
0 <= u1_t10_h8 <= 1;
0 <= u1_t10_h9 <= 1;
0 <= u1_t10_h10 <= 1;
0 <= u1_t10_h11 <= 1;
0 <= u1_t10_h12 <= 1;
0 <= u1_t10_h13 <= 1;
0 <= u1_t10_h14 <= 1;
u1_t10_h8 + u1_t10_h9 + u1_t10_h10 + u1_t10_h11 + u1_t10_h12 + u1_t10_h13 + u1_t10_h14 = 3;
